
Gurobi 7.5.2 (linux64) logging started Sat Jul  7 16:18:37 2018

Changed value of parameter LogFile to result/ilp/simNo_1-n_100-m_40-s_4-minVAF_0.05-cov_10000-k_1-fn_0.10-fp_0.0001-na_0.15.ILP.gurobiSolverLog
   Prev: gurobi.log  Default: 
Changed value of parameter TimeLimit to 86400.0
   Prev: 1e+100  Min: 0.0  Max: 1e+100  Default: 1e+100
Optimize a model with 639293 rows, 10765 columns and 1940420 nonzeros
Variable types: 0 continuous, 10765 integer (10765 binary)
Coefficient statistics:
  Matrix range     [2e-05, 4e+00]
  Objective range  [3e-01, 9e+00]
  Bounds range     [1e+00, 1e+00]
  RHS range        [2e-01, 2e+00]
Found heuristic solution: objective -17219.22959
Presolve removed 126274 rows and 974 columns (presolve time = 5s) ...
Presolve removed 127287 rows and 974 columns (presolve time = 10s) ...
Presolve removed 127816 rows and 974 columns (presolve time = 19s) ...
Presolve removed 180716 rows and 1503 columns (presolve time = 20s) ...
Presolve removed 180716 rows and 1503 columns (presolve time = 27s) ...
Presolve removed 180716 rows and 1503 columns
Presolve time: 27.91s
Presolved: 458577 rows, 9262 columns, 1380700 nonzeros
Variable types: 0 continuous, 9262 integer (9262 binary)
Presolved: 9262 rows, 467839 columns, 1389962 nonzeros

Presolve removed 9262 rows and 467839 columns

Root simplex log...

Iteration    Objective       Primal Inf.    Dual Inf.      Time
       0    7.8735967e+00   0.000000e+00   8.517900e+04     34s
    9192   -1.8901416e+02   0.000000e+00   1.316593e+05     35s
   23874   -3.0712321e+02   0.000000e+00   4.303409e+04     40s
   34119   -3.3337580e+02   3.750234e-03   0.000000e+00     45s
   34172   -3.3337543e+02   0.000000e+00   0.000000e+00     46s
   34172   -3.3337543e+02   0.000000e+00   0.000000e+00     47s

Root relaxation: objective -3.333754e+02, 34172 iterations, 16.62 seconds
Total elapsed time = 133.84s
Total elapsed time = 223.46s
Total elapsed time = 310.30s

    Nodes    |    Current Node    |     Objective Bounds      |     Work
 Expl Unexpl |  Obj  Depth IntInf | Incumbent    BestBd   Gap | It/Node Time

     0     0 -333.37543    0 1504 -17219.230 -333.37543  98.1%     -  316s
H    0     0                    -470.9210455 -333.37543  29.2%     -  321s
H    0     0                    -431.4775781 -333.37543  22.7%     -  324s
     0     0 -335.61829    0 1527 -431.47758 -335.61829  22.2%     -  346s
     0     0 -335.61829    0 1529 -431.47758 -335.61829  22.2%     -  364s
     0     0 -340.72616    0 1422 -431.47758 -340.72616  21.0%     -  624s
     0     0 -340.72616    0 1414 -431.47758 -340.72616  21.0%     -  632s
     0     0 -341.89730    0 1486 -431.47758 -341.89730  20.8%     -  733s
     0     0 -341.89730    0 1486 -431.47758 -341.89730  20.8%     -  741s
     0     0 -343.12106    0 1609 -431.47758 -343.12106  20.5%     - 1079s
H    0     0                    -418.0226911 -343.12106  17.9%     - 1085s
     0     0 -343.16005    0 1597 -418.02269 -343.16005  17.9%     - 1095s
     0     0 -343.16005    0 1595 -418.02269 -343.16005  17.9%     - 1101s
     0     0 -344.55611    0 1499 -418.02269 -344.55611  17.6%     - 1254s
     0     0 -345.30342    0 1619 -418.02269 -345.30342  17.4%     - 1315s
     0     0 -345.30587    0 1637 -418.02269 -345.30587  17.4%     - 1327s
     0     0 -345.31173    0 1621 -418.02269 -345.31173  17.4%     - 1340s
     0     0 -347.00616    0 1641 -418.02269 -347.00616  17.0%     - 1443s
     0     0 -347.53616    0 1749 -418.02269 -347.53616  16.9%     - 1501s
     0     0 -347.54419    0 1754 -418.02269 -347.54419  16.9%     - 1510s
     0     0 -347.54419    0 1751 -418.02269 -347.54419  16.9%     - 1514s
     0     0 -350.16041    0 1739 -418.02269 -350.16041  16.2%     - 2744s
     0     0 -350.16041    0 1741 -418.02269 -350.16041  16.2%     - 2755s
     0     0 -352.02938    0 1742 -418.02269 -352.02938  15.8%     - 3293s
     0     0 -352.02938    0 1742 -418.02269 -352.02938  15.8%     - 3302s
     0     0 -354.50181    0 1758 -418.02269 -354.50181  15.2%     - 8006s
     0     0 -354.99328    0 1721 -418.02269 -354.99328  15.1%     - 8077s
     0     0 -357.85811    0 1643 -418.02269 -357.85811  14.4%     - 11168s
     0     0 -357.85823    0 1581 -418.02269 -357.85823  14.4%     - 11245s
     0     0 -359.42709    0 1639 -418.02269 -359.42709  14.0%     - 14104s
     0     0 -359.50184    0 1616 -418.02269 -359.50184  14.0%     - 14143s
     0     0 -359.50184    0 1682 -418.02269 -359.50184  14.0%     - 14152s
     0     0 -361.03288    0 1538 -418.02269 -361.03288  13.6%     - 14713s
H    0     0                    -416.9142561 -361.03288  13.4%     - 14766s
     0     0 -361.59671    0 1574 -416.91426 -361.59671  13.3%     - 18091s
     0     0 -361.70695    0 1666 -416.91426 -361.70695  13.2%     - 18121s
     0     0 -361.70695    0 1669 -416.91426 -361.70695  13.2%     - 18126s
     0     0 -363.83680    0 1658 -416.91426 -363.83680  12.7%     - 19217s
H    0     0                    -414.6717749 -363.83680  12.3%     - 19249s
     0     0 -364.06989    0 1666 -414.67177 -364.06989  12.2%     - 19305s
     0     0 -364.07118    0 1654 -414.67177 -364.07118  12.2%     - 19312s
     0     0 -364.77054    0 1363 -414.67177 -364.77054  12.0%     - 21746s
     0     0 -364.93925    0 1681 -414.67177 -364.93925  12.0%     - 21907s
     0     0 -364.93925    0 1676 -414.67177 -364.93925  12.0%     - 21921s
     0     0 -366.07924    0 1655 -414.67177 -366.07924  11.7%     - 31309s
     0     0 -366.31361    0 1666 -414.67177 -366.31361  11.7%     - 31413s
     0     0 -366.45221    0 1612 -414.67177 -366.45221  11.6%     - 31426s
     0     0 -366.52227    0 1733 -414.67177 -366.52227  11.6%     - 31442s
     0     0 -366.52227    0 1737 -414.67177 -366.52227  11.6%     - 31448s
     0     0 -367.87890    0 1649 -414.67177 -367.87890  11.3%     - 36124s
     0     0 -368.22164    0 1822 -414.67177 -368.22164  11.2%     - 36253s
     0     0 -368.29106    0 1758 -414.67177 -368.29106  11.2%     - 36275s
     0     0 -368.29106    0 1758 -414.67177 -368.29106  11.2%     - 36280s
     0     0 -369.17825    0 1827 -414.67177 -369.17825  11.0%     - 36598s
     0     0 -369.37753    0 1752 -414.67177 -369.37753  10.9%     - 36649s
     0     0 -369.37753    0 1751 -414.67177 -369.37753  10.9%     - 36656s
     0     0 -370.19180    0 1659 -414.67177 -370.19180  10.7%     - 36886s
     0     0 -370.26303    0 1685 -414.67177 -370.26303  10.7%     - 36967s
     0     0 -370.28179    0 1681 -414.67177 -370.28179  10.7%     - 36984s
     0     0 -370.28475    0 1683 -414.67177 -370.28475  10.7%     - 36994s
     0     0 -371.31137    0 1668 -414.67177 -371.31137  10.5%     - 37331s
     0     0 -371.31262    0 1659 -414.67177 -371.31262  10.5%     - 37368s
     0     0 -372.30609    0 1731 -414.67177 -372.30609  10.2%     - 37703s
     0     0 -372.42037    0 1747 -414.67177 -372.42037  10.2%     - 37803s
     0     0 -372.53339    0 1734 -414.67177 -372.53339  10.2%     - 37844s
     0     0 -372.53339    0 1738 -414.67177 -372.53339  10.2%     - 37850s
     0     0 -372.53339    0 1748 -414.67177 -372.53339  10.2%     - 37870s
H    0     0                    -412.4292937 -372.53339  9.67%     - 37911s
     0     0 -372.53339    0 1748 -412.42929 -372.53339  9.67%     - 37915s
     0     0 -372.78806    0 1685 -412.42929 -372.78806  9.61%     - 38411s
H    0     0                    -407.9443314 -372.78806  8.62%     - 38442s
     0     0 -372.87290    0 1669 -407.94433 -372.87290  8.60%     - 39118s
     0     0 -372.88933    0 1743 -407.94433 -372.88933  8.59%     - 39129s
     0     0 -372.89592    0 1678 -407.94433 -372.89592  8.59%     - 39139s
     0     0 -372.89781    0 1679 -407.94433 -372.89781  8.59%     - 39148s
     0     0 -373.39586    0 1740 -407.94433 -373.39586  8.47%     - 39561s
     0     0 -373.54727    0 1749 -407.94433 -373.54727  8.43%     - 39711s
     0     0 -373.55548    0 1655 -407.94433 -373.55548  8.43%     - 39741s
     0     0 -373.55548    0 1667 -407.94433 -373.55548  8.43%     - 39748s
     0     0 -373.55548    0 1661 -407.94433 -373.55548  8.43%     - 39762s
H    0     0                    -405.7018502 -373.55548  7.92%     - 39784s
     0     0 -373.55548    0 1662 -405.70185 -373.55548  7.92%     - 39786s
     0     0 -373.55548    0 1657 -405.70185 -373.55548  7.92%     - 39801s
     0     0 -373.63182    0 1667 -405.70185 -373.63182  7.90%     - 39899s
     0     0 -373.63452    0 1676 -405.70185 -373.63452  7.90%     - 39918s
     0     0 -373.63605    0 1663 -405.70185 -373.63605  7.90%     - 41802s
     0     0 -373.63605    0 1668 -405.70185 -373.63605  7.90%     - 41842s
     0     0 -373.63605    0 1668 -405.70185 -373.63605  7.90%     - 41855s
     0     0 -373.63605    0 1667 -405.70185 -373.63605  7.90%     - 41895s
     0     0 -373.63605    0 1658 -405.70185 -373.63605  7.90%     - 42122s
     0     0 -373.63605    0 1658 -405.70185 -373.63605  7.90%     - 42246s
     0     2 -373.63749    0 1658 -405.70185 -373.63749  7.90%     - 42724s
     1     3 -375.24148    1 1420 -405.70185 -373.63749  7.90%  8339 42772s
     2     4 -378.60520    2 1431 -405.70185 -373.63749  7.90%  6172 42815s
     3     5 -379.72644    3 1424 -405.70185 -373.63749  7.90%  4413 42824s
     4     4     cutoff    3      -405.70185 -373.63749  7.90%  7350 43028s
     5     5 -380.28706    4 1412 -405.70185 -373.63749  7.90%  5963 43034s
     6     6 -403.84169    4  866 -405.70185 -373.63749  7.90%  8121 43275s
     7     7 -381.40830    5 1196 -405.70185 -373.63749  7.90%  7390 43305s
     8     8 -382.52954    6 1304 -405.70185 -373.63749  7.90%  6582 43352s
     9     9 -384.77203    6 1139 -405.70185 -373.63749  7.90%  6303 43422s
    10    10 -383.65079    7 1229 -405.70185 -373.63749  7.90%  5773 43428s
    11    11 -384.77203    7 1291 -405.70185 -373.63749  7.90%  5631 43472s
    12    12 -387.01451    8 1204 -405.70185 -373.63749  7.90%  5238 43481s
    14    12     cutoff    9      -405.70185 -373.63749  7.90%  5373 43646s
    15    13 -390.00448   10 1137 -405.70185 -373.63749  7.90%  5192 43662s
    16    14 -391.12572   11 1032 -405.70185 -373.63749  7.90%  4895 43707s
    17    15 -392.24696   12 1028 -405.70185 -373.63749  7.90%  4630 43711s
    18    14     cutoff   12      -405.70185 -373.63749  7.90%  4853 43808s
    19    15 -392.62071   13  961 -405.70185 -373.63749  7.90%  4604 43812s
    20    16 -393.18133   14  965 -405.70185 -373.63749  7.90%  4379 43815s
    22    18 -393.74195   16  956 -405.70185 -373.63749  7.90%  3991 43822s
    24    20 -394.86319   18  834 -405.70185 -373.63749  7.90%  3669 43840s
    25    19     cutoff   18      -405.70185 -373.63749  7.90%  3562 43847s
    26    20 -395.98443   19  820 -405.70185 -373.63749  7.90%  3441 43850s
    27    21 -397.10567   20  804 -405.70185 -373.63749  7.90%  3317 43866s
    28    20     cutoff   20      -405.70185 -373.63749  7.90%  3219 43870s
    31    23 -400.46939   23  715 -405.70185 -373.63749  7.90%  2920 43876s
    33    21     cutoff   24      -405.70185 -373.63749  7.90%  2767 43880s
    35    21 -398.59109    1 1303 -405.70185 -375.31070  7.49%  3658 44420s
    36    22 -400.46088    2 1114 -405.70185 -375.31070  7.49%  3571 44444s
    37    23 -401.57783    3  998 -405.70185 -375.31070  7.49%  3479 44447s
    39    25 -404.94155    4  796 -405.70185 -375.31070  7.49%  3358 44463s
    40    26 -404.94155    5  833 -405.70185 -375.31070  7.49%  3277 44473s
    44    24 -402.69907    5  894 -405.70185 -375.31070  7.49%  2981 44476s
    45    25 -403.82031    6  857 -405.70185 -375.31070  7.49%  2916 44484s
    46    26 -404.94155    7  820 -405.70185 -375.31070  7.49%  2855 44486s
    52    22     cutoff    6      -405.70185 -375.31070  7.49%  2545 44491s
    53    23 -378.60520    2 1393 -405.70185 -378.60520  6.68%  2658 44596s
    54    24 -379.72644    3 1332 -405.70185 -378.62139  6.67%  2633 44665s
    55    25 -381.03456    3 1321 -405.70185 -379.72644  6.40%  2681 44713s
    56    26 -381.40830    4 1246 -405.70185 -379.72644  6.40%  2675 44831s
    57    27 -383.65079    4 1168 -405.70185 -380.28706  6.26%  2697 44869s
    58    28 -384.77203    5 1102 -405.70185 -380.28706  6.26%  2662 44875s
    60    30 -388.13575    7 1157 -405.70185 -380.28706  6.26%  2582 44882s
    61    29     cutoff    7      -405.70185 -380.28706  6.26%  2778 45041s
    63    29     cutoff    8      -405.70185 -380.28706  6.26%  2931 45224s
    64    30 -393.18133    9 1130 -405.70185 -380.28706  6.26%  2894 45247s
    65    31 -395.98443   10 1048 -405.70185 -380.28706  6.26%  2860 45255s
    66    32 -399.34815   11  961 -405.70185 -380.28706  6.26%  2822 45260s
    68    34 -398.22691   12  963 -405.70185 -380.28706  6.26%  2746 45265s
    72    36 -403.83312   15  744 -405.70185 -380.28706  6.26%  2607 45290s
    77    35 -402.71188   15  758 -405.70185 -380.28706  6.26%  2444 45298s
    80    36 -404.95436   17  754 -405.70185 -380.28706  6.26%  2355 45310s
    87    35     cutoff   21      -405.70185 -380.28706  6.26%  2167 45315s
    89    35 -381.40830    5 1238 -405.70185 -381.03706  6.08%  2126 45321s
    90    36 -385.79134    6 1428 -405.70185 -381.03706  6.08%  2243 45557s
    91    37 -386.81065    7 1344 -405.70185 -381.03706  6.08%  2371 45802s
    92    38 -387.01451    8 1359 -405.70185 -381.03706  6.08%  2351 45808s

Cutting planes:
  Gomory: 3
  Zero half: 470

Explored 93 nodes (1480295 simplex iterations) in 86400.33 seconds
Thread count was 1 (of 80 available processors)

Solution count 9: -405.702 -407.944 -412.429 ... -17219.2

Time limit reached
Best objective -4.057018502293e+02, best bound -3.810370561902e+02, gap 6.0795%
